#insiemi
set J :=1 2 3 4 5 6;
set D := x y z;
set R= uno due tre quattro cinque sei;

#parametri
param s :=
[1, *, *]: uno due tre quattro cinque sei:=
	x 276 276 172 172 50 50
	y 172 50 276 50 172 276
	z 50 172 50  273  276 172
[2, *, *]: uno due tre quattro cinque sei:=
	x 285 285 181 181 62 62
	y 62 181 62 285  285  181
	z 181 62 285 62 181 285

[3, *, *]: uno due tre quattro cinque sei:=
	x 335 335 288 288 82 82
	y 288 82  335 82  288 335
	z 82  288  82  335 335 288
[4, *, *]: uno due tre quattro cinque sei:=
	x 500 500 430 430 255 255
	y 430 255 255 500 430 500
	z 255 430 500 255 500 430

[5, *, *]: uno due tre quattro cinque sei:=
	x 295 295 290 290 57 57
	y 290 57 295 57 290 295
	z 57 290 57 295 295 290

[6, *, *]: uno due tre quattro cinque sei:=
	x  327 327 77 77 67 67 
	y  77 67  327 67 327 77
	z 67 77 67 327 77 327

;

param po :=
1 24 
2 5
3 8
4 9
5 20 
6 22
;

param pu :=
1 1
2 1
3 1
4 1 
5 1 
6 1;

param S :=
x	612
y	492
z	384
;

param BigM:= 10000000000;